k = 24;
b = 12;
AtomicConstraints =  [|
2, 3|
	2, 4|
	2, 9|
	2, 11|
	2, 12|
	5, 3|
	5, 4|
	5, 6|
	5, 12|
	7, 1|
	7, 8|
	7, 9|
	10, 1|
	10, 8|
	10, 9|
	10, 11|
	10, 12|
	13, 24|
	13, 16|
	13, 17|
	13, 18|
	19, 24|
	19, 14|
	19, 16|
	19, 17|
	19, 18|
	20, 24|
	20, 14|
	20, 15|
	20, 16|
	20, 17|
	20, 18|
	21, 16|
	22, 16|
	22, 17|
	23, 16|
	23, 17|
	23, 18|];
DisjunctiveConstraints =  [|2, 10, 2, 5|
	3, 12, 3, 4|
	4, 3, 4, 6|
	8, 1, 8, 9|
	9, 8, 9, 11|
	10, 7, 10, 2|
	11, 9, 11, 12|
	12, 11, 12, 3|
	13, 24, 13, 12|
	19, 20, 19, 13|
	19, 14, 19, 2|
	20, 15, 20, 3|
	22, 23, 22, 21|
	14, 15, 14, 24|
	17, 18, 17, 16|];
SoftAtomicConstraints =  [|
10, 2|
12, 3|
3, 4|
2, 5|
4, 6|
1, 8|
8, 9|
7, 10|
9, 11|
11, 12|
19, 13|
15, 14|
17, 16|
18, 17|
24, 18|
20, 19|
22, 21|
23, 22|
13, 23|
14, 24|];
DirectSuccessors =  [];
